(set-logic BV) (define-fun origCir ((i_7 Bool) (i_8 Bool) (i_6 Bool) (i_5 Bool)) Bool (and (not (and (and (not i_8) i_6) i_7)) (not (and i_6 i_5)))) (synth-fun skel ((i_7 Bool) (i_8 Bool) (i_6 Bool) (i_5 Bool)) Bool) (declare-var i_7 Bool) (declare-var i_8 Bool) (declare-var i_6 Bool) (declare-var i_5 Bool) (constraint (= (origCir i_7 i_8 i_6 i_5) (skel i_7 i_8 i_6 i_5))) (check-synth)
